(set-logic HORN)
(set-info :source |
    Benchmark: C_VC
    Output by Princess (http://www.philipp.ruemmer.org/princess.shtml)
|)
(set-info :status unknown)
(declare-fun inv_main14 (Int Int Int Int) Bool)
(declare-fun inv_main4 (Int Int) Bool)
(declare-fun inv_main6 (Int Int Int Int) Bool)
(assert (forall ((var0 Int)) (forall ((var1 Int)) (inv_main4 var1 var0 ) ) ) )
(assert (forall ((var0 Int)) (forall ((var1 Int)) (forall ((var2 Int)) (forall ((var3 Int)) (or (not (and (inv_main6 var1 var0 var3 var2 ) (not (= var3 0 ) ) ) ) (inv_main6 var1 var0 (+ var3 (- 1) ) (+ var2 (- 1) ) ) ) ) ) ) ) )
(assert (forall ((var0 Int)) (forall ((var1 Int)) (forall ((var2 Int)) (forall ((var3 Int)) (or (not (and (inv_main6 var1 var0 var3 var2 ) (and (not (= var2 0 ) ) (and (= var1 var0 ) (= var3 0 ) ) ) ) ) (inv_main14 var1 var0 var3 var2 ) ) ) ) ) ) )
(assert (forall ((var0 Int)) (forall ((var1 Int)) (or (not (inv_main4 var1 var0 ) ) (inv_main6 var1 var0 var1 var0 ) ) ) ) )
(assert (forall ((var0 Int)) (forall ((var1 Int)) (forall ((var2 Int)) (forall ((var3 Int)) (not (inv_main14 var1 var0 var3 var2 ) ) ) ) ) ) )
(check-sat)
